28809
1 1 1 1 1 1 1 0 1 1 1 1 1 1 1 1 1 1 0 1 1 1 1 1 1 1 0 1 1 1
9 8 1 15 9 3 8 3 6 5 9 4 10 12 9 2 14 16 16 20 16 16 4 19 17 9 21 22 3 16 4 5 14 3 2 24 0 16 16 17 1 25 12 1 22 22 12 10 22 19 3 14 24 4 17 4 5 5 14 15 10 27 13 29 15 24 5 14 23 6 19 3 2 8 14 15 22 11 3 14 5 12 11 24 20 5 15 2 6 15 19 29 2 21 29 17 20 8 11 3 6 9 27 11 27 19 1 23 13 9 25 27 21 19 28 11 20 19 11 3 15 28 10 13 1 11 21 20 8 21 23 10 12 9 16 28 5 5 22 9 21 17 19 11 6 19 11 8 11 0 8 11 5 22 4 25 0 29 24 17 23 20 19 17 11 0 9 5 16 22 2 14 24 20 23 23 2 14 27 4 19 4 28 22 28 15 29 1 28 20 16 8 12 9 8 10 4 1 27 8